/*********************************************
 * OPL 12.6.0.0 Data
 * Author: Adrian Rodriguez Bazaga, Pau Rodriguez Esmerats
 * Creation Date: 06/12/2017 at 23:03:03
 *********************************************/

nNurses=205;
maxConsec=2;
maxPresence=7;
maxHours=5;
minHours=1;
hours=24;
demand= [41 31 56 59 31 56 59 35 34 26 2 12 3 16 5 12 3 8 3 4 25 51 28 47  ];
